3329.88
0 14 18 20 17 16 11 24 22 13 21 8 7 5 3 0
0 31 32 38 46 19 15 23 53 6 72 0
0 28 30 36 34 33 27 25 26 51 0
0 29 39 41 48 45 37 9 54 0
0 44 43 42 49 35 55 56 0
0 65 70 68 61 52 57 40 62 47 74 77 75 10 50 0
0 81 85 82 84 79 76 73 92 86 87 66 67 69 12 63 60 64 0
0 2 83 95 71 0
0 99 98 89 88 1 100 78 0
0 91 90 93 94 59 0
0 97 96 80 58 4 0
